
Gurobi 7.0.2 (win64, Python) logging started 02/28/17 18:50:08

Optimize a model with 2 rows, 3 columns and 5 nonzeros
Variable types: 0 continuous, 3 integer (3 binary)
Coefficient statistics:
  Matrix range     [1e+00, 3e+00]
  Objective range  [1e+00, 2e+00]
  Bounds range     [1e+00, 1e+00]
  RHS range        [1e+00, 4e+00]
Presolve removed 2 rows and 3 columns
Presolve time: 0.00s
Presolve: All rows and columns removed

Explored 0 nodes (0 simplex iterations) in 0.03 seconds
Thread count was 1 (of 8 available processors)

Solution count 1: 3 
Pool objective bound 3

Optimal solution found (tolerance 1.00e-04)
Best objective 3.000000000000e+00, best bound 3.000000000000e+00, gap 0.0000%

Gurobi 7.0.2 (win64, Python) logging started 02/28/17 19:06:53

Optimize a model with 2 rows, 3 columns and 5 nonzeros
Variable types: 0 continuous, 3 integer (3 binary)
Coefficient statistics:
  Matrix range     [1e+00, 3e+00]
  Objective range  [1e+00, 2e+00]
  Bounds range     [1e+00, 1e+00]
  RHS range        [1e+00, 4e+00]
Presolve removed 2 rows and 3 columns
Presolve time: 0.00s
Presolve: All rows and columns removed

Explored 0 nodes (0 simplex iterations) in 0.03 seconds
Thread count was 1 (of 8 available processors)

Solution count 1: 3 
Pool objective bound 3

Optimal solution found (tolerance 1.00e-04)
Best objective 3.000000000000e+00, best bound 3.000000000000e+00, gap 0.0000%

Gurobi 7.0.2 (win64, Python) logging started 03/04/17 21:56:38

Optimize a model with 2 rows, 3 columns and 5 nonzeros
Variable types: 0 continuous, 3 integer (3 binary)
Coefficient statistics:
  Matrix range     [1e+00, 3e+00]
  Objective range  [1e+00, 2e+00]
  Bounds range     [1e+00, 1e+00]
  RHS range        [1e+00, 4e+00]
Presolve removed 2 rows and 3 columns
Presolve time: 0.01s
Presolve: All rows and columns removed

Explored 0 nodes (0 simplex iterations) in 0.04 seconds
Thread count was 1 (of 8 available processors)

Solution count 1: 3 
Pool objective bound 3

Optimal solution found (tolerance 1.00e-04)
Best objective 3.000000000000e+00, best bound 3.000000000000e+00, gap 0.0000%
Optimize a model with 16 rows, 12 columns and 36 nonzeros
Coefficient statistics:
  Matrix range     [1e+00, 1e+00]
  Objective range  [1e+01, 8e+01]
  Bounds range     [0e+00, 0e+00]
  RHS range        [1e+01, 1e+02]
Presolve removed 16 rows and 12 columns
Presolve time: 0.02s
Presolve: All rows and columns removed
Iteration    Objective       Primal Inf.    Dual Inf.      Time
       0    5.5000000e+03   0.000000e+00   0.000000e+00      0s

Solved in 0 iterations and 0.03 seconds
Optimal objective  5.500000000e+03

Gurobi 7.0.2 (win64, Python) logging started 03/04/17 22:01:04


Gurobi 7.0.2 (win64, Python) logging started 03/05/17 23:42:20


Gurobi 7.0.2 (win64, Python) logging started 03/06/17 00:04:07


Gurobi 7.0.2 (win64, Python) logging started 03/06/17 00:28:30


Gurobi 7.0.2 (win64, Python) logging started 03/06/17 00:49:30


Gurobi 7.0.2 (win64, Python) logging started 03/06/17 01:39:36


Gurobi 7.0.2 (win64, Python) logging started 03/06/17 01:51:36


Gurobi 7.0.2 (win64, Python) logging started 03/06/17 01:54:01


Gurobi 7.0.2 (win64, Python) logging started 03/06/17 01:55:55


Gurobi 7.0.2 (win64, Python) logging started 03/06/17 02:15:04


Gurobi 7.0.2 (win64, Python) logging started 03/06/17 02:29:16


Gurobi 7.0.2 (win64, Python) logging started 03/06/17 02:31:48


Gurobi 7.0.2 (win64, Python) logging started 03/07/17 00:37:16


Gurobi 7.0.2 (win64, Python) logging started 03/07/17 00:40:28


Gurobi 7.0.2 (win64, Python) logging started 03/07/17 00:58:34

Optimize a model with 2 rows, 3 columns and 5 nonzeros
Variable types: 0 continuous, 3 integer (3 binary)
Coefficient statistics:
  Matrix range     [1e+00, 3e+00]
  Objective range  [1e+00, 2e+00]
  Bounds range     [1e+00, 1e+00]
  RHS range        [1e+00, 4e+00]
Presolve removed 2 rows and 3 columns
Presolve time: 0.01s
Presolve: All rows and columns removed

Explored 0 nodes (0 simplex iterations) in 0.04 seconds
Thread count was 1 (of 8 available processors)

Solution count 1: 3 
Pool objective bound 3

Optimal solution found (tolerance 1.00e-04)
Best objective 3.000000000000e+00, best bound 3.000000000000e+00, gap 0.0000%

Gurobi 7.0.2 (win64, Python) logging started 03/07/17 17:12:52


Gurobi 7.0.2 (win64, Python) logging started 03/07/17 20:23:32


Gurobi 7.0.2 (win64, Python) logging started 03/07/17 20:31:13


Gurobi 7.0.2 (win64, Python) logging started 03/07/17 20:33:34


Gurobi 7.0.2 (win64, Python) logging started 03/07/17 20:38:38


Gurobi 7.0.2 (win64, Python) logging started 03/07/17 20:40:03


Gurobi 7.0.2 (win64, Python) logging started 03/07/17 20:43:12


Gurobi 7.0.2 (win64, Python) logging started 03/07/17 20:43:51


Gurobi 7.0.2 (win64, Python) logging started 03/07/17 20:44:50


Gurobi 7.0.2 (win64, Python) logging started 03/07/17 20:48:58


Gurobi 7.0.2 (win64, Python) logging started 03/07/17 20:54:35


Gurobi 7.0.2 (win64, Python) logging started 03/07/17 21:06:53


Gurobi 7.0.2 (win64, Python) logging started 03/07/17 21:27:34


Gurobi 7.0.2 (win64, Python) logging started 03/07/17 22:00:05


Gurobi 7.0.2 (win64, Python) logging started 03/07/17 22:14:54


Gurobi 7.0.2 (win64, Python) logging started 03/07/17 23:19:10


Gurobi 7.0.2 (win64, Python) logging started 03/08/17 00:47:09

